
;this file is automatically generated: Wed Apr 21 11:03:36 CST 2021

;declarations generated

(declare-fun oclExcludes ( Int Int) Bool)
(declare-fun Cardinality ( Int) Int)
(declare-fun obj_bf646af6_c1d6_4f2b_8186_282ff54bbdfa ( Int) Int)
(declare-fun class55_Class55IntAttr1 ( Int) Int)
(declare-fun type_e8f2dfaa_ee76_4760_b8c8_f623f6346ef9_Class9 ( Int) Bool)
(declare-fun type_e8f2dfaa_ee76_4760_b8c8_f623f6346ef9_Class8 ( Int) Bool)
(declare-fun type_e8f2dfaa_ee76_4760_b8c8_f623f6346ef9_Class7 ( Int) Bool)
(declare-fun type_e8f2dfaa_ee76_4760_b8c8_f623f6346ef9_Class6 ( Int) Bool)
(declare-fun type_e8f2dfaa_ee76_4760_b8c8_f623f6346ef9_Class1 ( Int) Bool)
(declare-fun type_e8f2dfaa_ee76_4760_b8c8_f623f6346ef9_Class0 ( Int) Bool)
(declare-fun type_e8f2dfaa_ee76_4760_b8c8_f623f6346ef9_Class5 ( Int) Bool)
(declare-fun type_e8f2dfaa_ee76_4760_b8c8_f623f6346ef9_Class4 ( Int) Bool)
(declare-fun type_e8f2dfaa_ee76_4760_b8c8_f623f6346ef9_Class3 ( Int) Bool)
(declare-fun type_e8f2dfaa_ee76_4760_b8c8_f623f6346ef9_Class2 ( Int) Bool)
(declare-fun oclSelect ( Int Bool) Int)
(declare-fun Enum0 ( Int) Int)
(declare-fun Enum1 ( Int) Int)
(declare-fun Enum2 ( Int) Int)
(declare-fun type_e8f2dfaa_ee76_4760_b8c8_f623f6346ef9_Class56 ( Int) Bool)
(declare-fun type_e8f2dfaa_ee76_4760_b8c8_f623f6346ef9_Class55 ( Int) Bool)
(declare-fun type_e8f2dfaa_ee76_4760_b8c8_f623f6346ef9_Class54 ( Int) Bool)
(declare-fun type_e8f2dfaa_ee76_4760_b8c8_f623f6346ef9_Class53 ( Int) Bool)
(declare-fun type_e8f2dfaa_ee76_4760_b8c8_f623f6346ef9_Class52 ( Int) Bool)
(declare-fun type_e8f2dfaa_ee76_4760_b8c8_f623f6346ef9_Class51 ( Int) Bool)
(declare-fun type_e8f2dfaa_ee76_4760_b8c8_f623f6346ef9_Class50 ( Int) Bool)
(declare-fun container_ ( Int) Int)
(declare-fun type_e8f2dfaa_ee76_4760_b8c8_f623f6346ef9_Class49 ( Int) Bool)
(declare-fun type_e8f2dfaa_ee76_4760_b8c8_f623f6346ef9_Class48 ( Int) Bool)
(declare-fun type_e8f2dfaa_ee76_4760_b8c8_f623f6346ef9_Class47 ( Int) Bool)
(declare-fun type_e8f2dfaa_ee76_4760_b8c8_f623f6346ef9_Class46 ( Int) Bool)
(declare-fun type_e8f2dfaa_ee76_4760_b8c8_f623f6346ef9_Class45 ( Int) Bool)
(declare-fun type_e8f2dfaa_ee76_4760_b8c8_f623f6346ef9_Class44 ( Int) Bool)
(declare-fun type_e8f2dfaa_ee76_4760_b8c8_f623f6346ef9_Class43 ( Int) Bool)
(declare-fun type_e8f2dfaa_ee76_4760_b8c8_f623f6346ef9_Class42 ( Int) Bool)
(declare-fun type_e8f2dfaa_ee76_4760_b8c8_f623f6346ef9_Class41 ( Int) Bool)
(declare-fun type_e8f2dfaa_ee76_4760_b8c8_f623f6346ef9_Class40 ( Int) Bool)
(declare-fun type_e8f2dfaa_ee76_4760_b8c8_f623f6346ef9_Class39 ( Int) Bool)
(declare-fun type_e8f2dfaa_ee76_4760_b8c8_f623f6346ef9_Class38 ( Int) Bool)
(declare-fun type_e8f2dfaa_ee76_4760_b8c8_f623f6346ef9_Class37 ( Int) Bool)
(declare-fun type_e8f2dfaa_ee76_4760_b8c8_f623f6346ef9_Class36 ( Int) Bool)
(declare-fun type_e8f2dfaa_ee76_4760_b8c8_f623f6346ef9_Class35 ( Int) Bool)
(declare-fun type_e8f2dfaa_ee76_4760_b8c8_f623f6346ef9_Class34 ( Int) Bool)
(declare-fun type_e8f2dfaa_ee76_4760_b8c8_f623f6346ef9_Class33 ( Int) Bool)
(declare-fun type_e8f2dfaa_ee76_4760_b8c8_f623f6346ef9_Class32 ( Int) Bool)
(declare-fun type_e8f2dfaa_ee76_4760_b8c8_f623f6346ef9_Class31 ( Int) Bool)
(declare-fun type_e8f2dfaa_ee76_4760_b8c8_f623f6346ef9_Class30 ( Int) Bool)
(declare-fun type_e8f2dfaa_ee76_4760_b8c8_f623f6346ef9_Class29 ( Int) Bool)
(declare-fun type_e8f2dfaa_ee76_4760_b8c8_f623f6346ef9_Class28 ( Int) Bool)
(declare-fun type_e8f2dfaa_ee76_4760_b8c8_f623f6346ef9_Class27 ( Int) Bool)
(declare-fun type_e8f2dfaa_ee76_4760_b8c8_f623f6346ef9_Class26 ( Int) Bool)
(declare-fun type_e8f2dfaa_ee76_4760_b8c8_f623f6346ef9_Class25 ( Int) Bool)
(declare-fun type_e8f2dfaa_ee76_4760_b8c8_f623f6346ef9_Class24 ( Int) Bool)
(declare-fun type_e8f2dfaa_ee76_4760_b8c8_f623f6346ef9_Class23 ( Int) Bool)
(declare-fun oclIncludes ( Int Int) Bool)
(declare-fun type_e8f2dfaa_ee76_4760_b8c8_f623f6346ef9_Class22 ( Int) Bool)
(declare-fun type_e8f2dfaa_ee76_4760_b8c8_f623f6346ef9_Class21 ( Int) Bool)
(declare-fun type_e8f2dfaa_ee76_4760_b8c8_f623f6346ef9_Class20 ( Int) Bool)
(declare-fun type_e8f2dfaa_ee76_4760_b8c8_f623f6346ef9_Class19 ( Int) Bool)
(declare-fun type_e8f2dfaa_ee76_4760_b8c8_f623f6346ef9_Class18 ( Int) Bool)
(declare-fun type_e8f2dfaa_ee76_4760_b8c8_f623f6346ef9_Class17 ( Int) Bool)
(declare-fun type_e8f2dfaa_ee76_4760_b8c8_f623f6346ef9_Class16 ( Int) Bool)
(declare-fun type_e8f2dfaa_ee76_4760_b8c8_f623f6346ef9_Class15 ( Int) Bool)
(declare-fun type_e8f2dfaa_ee76_4760_b8c8_f623f6346ef9_Class14 ( Int) Bool)
(declare-fun type_e8f2dfaa_ee76_4760_b8c8_f623f6346ef9_Class13 ( Int) Bool)
(declare-fun type_e8f2dfaa_ee76_4760_b8c8_f623f6346ef9_Class12 ( Int) Bool)
(declare-fun type_e8f2dfaa_ee76_4760_b8c8_f623f6346ef9_Class11 ( Int) Bool)
(declare-fun type_e8f2dfaa_ee76_4760_b8c8_f623f6346ef9_Class10 ( Int) Bool)
(declare-fun ObjAt ( Int Int) Int)

;formula(s) generated
(assert (! (forall ((c1 Int)) (=> ( type_e8f2dfaa_ee76_4760_b8c8_f623f6346ef9_Class55 c1 )  (<= ( class55_Class55IntAttr1 ( obj_bf646af6_c1d6_4f2b_8186_282ff54bbdfa c1 )  )  12))):named l0))
(assert (! (forall ((v Int)) (=> ( type_e8f2dfaa_ee76_4760_b8c8_f623f6346ef9_Class55 v )  (not (= ( class55_Class55IntAttr1 ( obj_bf646af6_c1d6_4f2b_8186_282ff54bbdfa v )  )  3) ))):named l1))
(assert (! (exists ((o Int)) (and (and (and (and (and (and ( type_e8f2dfaa_ee76_4760_b8c8_f623f6346ef9_Class0 ( obj_bf646af6_c1d6_4f2b_8186_282ff54bbdfa o )  )  ( type_e8f2dfaa_ee76_4760_b8c8_f623f6346ef9_Class44 ( obj_bf646af6_c1d6_4f2b_8186_282ff54bbdfa o )  ) ) ( type_e8f2dfaa_ee76_4760_b8c8_f623f6346ef9_Class36 ( obj_bf646af6_c1d6_4f2b_8186_282ff54bbdfa o )  ) ) ( type_e8f2dfaa_ee76_4760_b8c8_f623f6346ef9_Class35 ( obj_bf646af6_c1d6_4f2b_8186_282ff54bbdfa o )  ) ) ( type_e8f2dfaa_ee76_4760_b8c8_f623f6346ef9_Class27 ( obj_bf646af6_c1d6_4f2b_8186_282ff54bbdfa o )  ) ) ( type_e8f2dfaa_ee76_4760_b8c8_f623f6346ef9_Class15 ( obj_bf646af6_c1d6_4f2b_8186_282ff54bbdfa o )  ) ) ( type_e8f2dfaa_ee76_4760_b8c8_f623f6346ef9_Class28 ( obj_bf646af6_c1d6_4f2b_8186_282ff54bbdfa o )  ) )):named c0))
(assert (! (exists ((o Int)) ( type_e8f2dfaa_ee76_4760_b8c8_f623f6346ef9_Class1 ( obj_bf646af6_c1d6_4f2b_8186_282ff54bbdfa o )  ) ):named c1))
(assert (! (exists ((o Int)) (and (and ( type_e8f2dfaa_ee76_4760_b8c8_f623f6346ef9_Class10 ( obj_bf646af6_c1d6_4f2b_8186_282ff54bbdfa o )  )  ( type_e8f2dfaa_ee76_4760_b8c8_f623f6346ef9_Class15 ( obj_bf646af6_c1d6_4f2b_8186_282ff54bbdfa o )  ) ) ( type_e8f2dfaa_ee76_4760_b8c8_f623f6346ef9_Class21 ( obj_bf646af6_c1d6_4f2b_8186_282ff54bbdfa o )  ) )):named c2))
(assert (! (exists ((o Int)) ( type_e8f2dfaa_ee76_4760_b8c8_f623f6346ef9_Class11 ( obj_bf646af6_c1d6_4f2b_8186_282ff54bbdfa o )  ) ):named c3))
(assert (! (exists ((o Int)) (and (and ( type_e8f2dfaa_ee76_4760_b8c8_f623f6346ef9_Class12 ( obj_bf646af6_c1d6_4f2b_8186_282ff54bbdfa o )  )  ( type_e8f2dfaa_ee76_4760_b8c8_f623f6346ef9_Class33 ( obj_bf646af6_c1d6_4f2b_8186_282ff54bbdfa o )  ) ) ( type_e8f2dfaa_ee76_4760_b8c8_f623f6346ef9_Class15 ( obj_bf646af6_c1d6_4f2b_8186_282ff54bbdfa o )  ) )):named c4))
(assert (! (exists ((o Int)) ( type_e8f2dfaa_ee76_4760_b8c8_f623f6346ef9_Class13 ( obj_bf646af6_c1d6_4f2b_8186_282ff54bbdfa o )  ) ):named c5))
(assert (! (exists ((o Int)) (and (and (and (and (and (and ( type_e8f2dfaa_ee76_4760_b8c8_f623f6346ef9_Class14 ( obj_bf646af6_c1d6_4f2b_8186_282ff54bbdfa o )  )  ( type_e8f2dfaa_ee76_4760_b8c8_f623f6346ef9_Class36 ( obj_bf646af6_c1d6_4f2b_8186_282ff54bbdfa o )  ) ) ( type_e8f2dfaa_ee76_4760_b8c8_f623f6346ef9_Class35 ( obj_bf646af6_c1d6_4f2b_8186_282ff54bbdfa o )  ) ) ( type_e8f2dfaa_ee76_4760_b8c8_f623f6346ef9_Class27 ( obj_bf646af6_c1d6_4f2b_8186_282ff54bbdfa o )  ) ) ( type_e8f2dfaa_ee76_4760_b8c8_f623f6346ef9_Class9 ( obj_bf646af6_c1d6_4f2b_8186_282ff54bbdfa o )  ) ) ( type_e8f2dfaa_ee76_4760_b8c8_f623f6346ef9_Class15 ( obj_bf646af6_c1d6_4f2b_8186_282ff54bbdfa o )  ) ) ( type_e8f2dfaa_ee76_4760_b8c8_f623f6346ef9_Class28 ( obj_bf646af6_c1d6_4f2b_8186_282ff54bbdfa o )  ) )):named c6))
(assert (! (exists ((o Int)) ( type_e8f2dfaa_ee76_4760_b8c8_f623f6346ef9_Class15 ( obj_bf646af6_c1d6_4f2b_8186_282ff54bbdfa o )  ) ):named c7))
(assert (! (exists ((o Int)) ( type_e8f2dfaa_ee76_4760_b8c8_f623f6346ef9_Class16 ( obj_bf646af6_c1d6_4f2b_8186_282ff54bbdfa o )  ) ):named c8))
(assert (! (exists ((o Int)) (and (and (and (and (and (and ( type_e8f2dfaa_ee76_4760_b8c8_f623f6346ef9_Class17 ( obj_bf646af6_c1d6_4f2b_8186_282ff54bbdfa o )  )  ( type_e8f2dfaa_ee76_4760_b8c8_f623f6346ef9_Class44 ( obj_bf646af6_c1d6_4f2b_8186_282ff54bbdfa o )  ) ) ( type_e8f2dfaa_ee76_4760_b8c8_f623f6346ef9_Class36 ( obj_bf646af6_c1d6_4f2b_8186_282ff54bbdfa o )  ) ) ( type_e8f2dfaa_ee76_4760_b8c8_f623f6346ef9_Class35 ( obj_bf646af6_c1d6_4f2b_8186_282ff54bbdfa o )  ) ) ( type_e8f2dfaa_ee76_4760_b8c8_f623f6346ef9_Class27 ( obj_bf646af6_c1d6_4f2b_8186_282ff54bbdfa o )  ) ) ( type_e8f2dfaa_ee76_4760_b8c8_f623f6346ef9_Class15 ( obj_bf646af6_c1d6_4f2b_8186_282ff54bbdfa o )  ) ) ( type_e8f2dfaa_ee76_4760_b8c8_f623f6346ef9_Class28 ( obj_bf646af6_c1d6_4f2b_8186_282ff54bbdfa o )  ) )):named c9))
(assert (! (exists ((o Int)) ( type_e8f2dfaa_ee76_4760_b8c8_f623f6346ef9_Class18 ( obj_bf646af6_c1d6_4f2b_8186_282ff54bbdfa o )  ) ):named c10))
(assert (! (exists ((o Int)) (and (and (and (and (and (and ( type_e8f2dfaa_ee76_4760_b8c8_f623f6346ef9_Class19 ( obj_bf646af6_c1d6_4f2b_8186_282ff54bbdfa o )  )  ( type_e8f2dfaa_ee76_4760_b8c8_f623f6346ef9_Class36 ( obj_bf646af6_c1d6_4f2b_8186_282ff54bbdfa o )  ) ) ( type_e8f2dfaa_ee76_4760_b8c8_f623f6346ef9_Class35 ( obj_bf646af6_c1d6_4f2b_8186_282ff54bbdfa o )  ) ) ( type_e8f2dfaa_ee76_4760_b8c8_f623f6346ef9_Class27 ( obj_bf646af6_c1d6_4f2b_8186_282ff54bbdfa o )  ) ) ( type_e8f2dfaa_ee76_4760_b8c8_f623f6346ef9_Class9 ( obj_bf646af6_c1d6_4f2b_8186_282ff54bbdfa o )  ) ) ( type_e8f2dfaa_ee76_4760_b8c8_f623f6346ef9_Class15 ( obj_bf646af6_c1d6_4f2b_8186_282ff54bbdfa o )  ) ) ( type_e8f2dfaa_ee76_4760_b8c8_f623f6346ef9_Class28 ( obj_bf646af6_c1d6_4f2b_8186_282ff54bbdfa o )  ) )):named c11))
(assert (! (exists ((o Int)) (and (and (and (and (and (and ( type_e8f2dfaa_ee76_4760_b8c8_f623f6346ef9_Class2 ( obj_bf646af6_c1d6_4f2b_8186_282ff54bbdfa o )  )  ( type_e8f2dfaa_ee76_4760_b8c8_f623f6346ef9_Class36 ( obj_bf646af6_c1d6_4f2b_8186_282ff54bbdfa o )  ) ) ( type_e8f2dfaa_ee76_4760_b8c8_f623f6346ef9_Class35 ( obj_bf646af6_c1d6_4f2b_8186_282ff54bbdfa o )  ) ) ( type_e8f2dfaa_ee76_4760_b8c8_f623f6346ef9_Class27 ( obj_bf646af6_c1d6_4f2b_8186_282ff54bbdfa o )  ) ) ( type_e8f2dfaa_ee76_4760_b8c8_f623f6346ef9_Class15 ( obj_bf646af6_c1d6_4f2b_8186_282ff54bbdfa o )  ) ) ( type_e8f2dfaa_ee76_4760_b8c8_f623f6346ef9_Class28 ( obj_bf646af6_c1d6_4f2b_8186_282ff54bbdfa o )  ) ) ( type_e8f2dfaa_ee76_4760_b8c8_f623f6346ef9_Class54 ( obj_bf646af6_c1d6_4f2b_8186_282ff54bbdfa o )  ) )):named c12))
(assert (! (exists ((o Int)) (and ( type_e8f2dfaa_ee76_4760_b8c8_f623f6346ef9_Class20 ( obj_bf646af6_c1d6_4f2b_8186_282ff54bbdfa o )  )  ( type_e8f2dfaa_ee76_4760_b8c8_f623f6346ef9_Class15 ( obj_bf646af6_c1d6_4f2b_8186_282ff54bbdfa o )  ) )):named c13))
(assert (! (exists ((o Int)) (and ( type_e8f2dfaa_ee76_4760_b8c8_f623f6346ef9_Class21 ( obj_bf646af6_c1d6_4f2b_8186_282ff54bbdfa o )  )  ( type_e8f2dfaa_ee76_4760_b8c8_f623f6346ef9_Class15 ( obj_bf646af6_c1d6_4f2b_8186_282ff54bbdfa o )  ) )):named c14))
(assert (! (exists ((o Int)) (and (and (and ( type_e8f2dfaa_ee76_4760_b8c8_f623f6346ef9_Class22 ( obj_bf646af6_c1d6_4f2b_8186_282ff54bbdfa o )  )  ( type_e8f2dfaa_ee76_4760_b8c8_f623f6346ef9_Class15 ( obj_bf646af6_c1d6_4f2b_8186_282ff54bbdfa o )  ) ) ( type_e8f2dfaa_ee76_4760_b8c8_f623f6346ef9_Class48 ( obj_bf646af6_c1d6_4f2b_8186_282ff54bbdfa o )  ) ) ( type_e8f2dfaa_ee76_4760_b8c8_f623f6346ef9_Class43 ( obj_bf646af6_c1d6_4f2b_8186_282ff54bbdfa o )  ) )):named c15))
(assert (! (exists ((o Int)) ( type_e8f2dfaa_ee76_4760_b8c8_f623f6346ef9_Class23 ( obj_bf646af6_c1d6_4f2b_8186_282ff54bbdfa o )  ) ):named c16))
(assert (! (exists ((o Int)) ( type_e8f2dfaa_ee76_4760_b8c8_f623f6346ef9_Class24 ( obj_bf646af6_c1d6_4f2b_8186_282ff54bbdfa o )  ) ):named c17))
(assert (! (exists ((o Int)) (and (and (and ( type_e8f2dfaa_ee76_4760_b8c8_f623f6346ef9_Class25 ( obj_bf646af6_c1d6_4f2b_8186_282ff54bbdfa o )  )  ( type_e8f2dfaa_ee76_4760_b8c8_f623f6346ef9_Class12 ( obj_bf646af6_c1d6_4f2b_8186_282ff54bbdfa o )  ) ) ( type_e8f2dfaa_ee76_4760_b8c8_f623f6346ef9_Class33 ( obj_bf646af6_c1d6_4f2b_8186_282ff54bbdfa o )  ) ) ( type_e8f2dfaa_ee76_4760_b8c8_f623f6346ef9_Class15 ( obj_bf646af6_c1d6_4f2b_8186_282ff54bbdfa o )  ) )):named c18))
(assert (! (exists ((o Int)) ( type_e8f2dfaa_ee76_4760_b8c8_f623f6346ef9_Class26 ( obj_bf646af6_c1d6_4f2b_8186_282ff54bbdfa o )  ) ):named c19))
(assert (! (exists ((o Int)) (and ( type_e8f2dfaa_ee76_4760_b8c8_f623f6346ef9_Class27 ( obj_bf646af6_c1d6_4f2b_8186_282ff54bbdfa o )  )  ( type_e8f2dfaa_ee76_4760_b8c8_f623f6346ef9_Class15 ( obj_bf646af6_c1d6_4f2b_8186_282ff54bbdfa o )  ) )):named c20))
(assert (! (exists ((o Int)) (and (and ( type_e8f2dfaa_ee76_4760_b8c8_f623f6346ef9_Class28 ( obj_bf646af6_c1d6_4f2b_8186_282ff54bbdfa o )  )  ( type_e8f2dfaa_ee76_4760_b8c8_f623f6346ef9_Class27 ( obj_bf646af6_c1d6_4f2b_8186_282ff54bbdfa o )  ) ) ( type_e8f2dfaa_ee76_4760_b8c8_f623f6346ef9_Class15 ( obj_bf646af6_c1d6_4f2b_8186_282ff54bbdfa o )  ) )):named c21))
(assert (! (exists ((o Int)) (and (and (and (and (and ( type_e8f2dfaa_ee76_4760_b8c8_f623f6346ef9_Class29 ( obj_bf646af6_c1d6_4f2b_8186_282ff54bbdfa o )  )  ( type_e8f2dfaa_ee76_4760_b8c8_f623f6346ef9_Class36 ( obj_bf646af6_c1d6_4f2b_8186_282ff54bbdfa o )  ) ) ( type_e8f2dfaa_ee76_4760_b8c8_f623f6346ef9_Class35 ( obj_bf646af6_c1d6_4f2b_8186_282ff54bbdfa o )  ) ) ( type_e8f2dfaa_ee76_4760_b8c8_f623f6346ef9_Class27 ( obj_bf646af6_c1d6_4f2b_8186_282ff54bbdfa o )  ) ) ( type_e8f2dfaa_ee76_4760_b8c8_f623f6346ef9_Class15 ( obj_bf646af6_c1d6_4f2b_8186_282ff54bbdfa o )  ) ) ( type_e8f2dfaa_ee76_4760_b8c8_f623f6346ef9_Class28 ( obj_bf646af6_c1d6_4f2b_8186_282ff54bbdfa o )  ) )):named c22))
(assert (! (exists ((o Int)) ( type_e8f2dfaa_ee76_4760_b8c8_f623f6346ef9_Class3 ( obj_bf646af6_c1d6_4f2b_8186_282ff54bbdfa o )  ) ):named c23))
(assert (! (exists ((o Int)) (and (and ( type_e8f2dfaa_ee76_4760_b8c8_f623f6346ef9_Class30 ( obj_bf646af6_c1d6_4f2b_8186_282ff54bbdfa o )  )  ( type_e8f2dfaa_ee76_4760_b8c8_f623f6346ef9_Class33 ( obj_bf646af6_c1d6_4f2b_8186_282ff54bbdfa o )  ) ) ( type_e8f2dfaa_ee76_4760_b8c8_f623f6346ef9_Class15 ( obj_bf646af6_c1d6_4f2b_8186_282ff54bbdfa o )  ) )):named c24))
(assert (! (exists ((o Int)) (and (and (and (and (and (and ( type_e8f2dfaa_ee76_4760_b8c8_f623f6346ef9_Class31 ( obj_bf646af6_c1d6_4f2b_8186_282ff54bbdfa o )  )  ( type_e8f2dfaa_ee76_4760_b8c8_f623f6346ef9_Class36 ( obj_bf646af6_c1d6_4f2b_8186_282ff54bbdfa o )  ) ) ( type_e8f2dfaa_ee76_4760_b8c8_f623f6346ef9_Class35 ( obj_bf646af6_c1d6_4f2b_8186_282ff54bbdfa o )  ) ) ( type_e8f2dfaa_ee76_4760_b8c8_f623f6346ef9_Class27 ( obj_bf646af6_c1d6_4f2b_8186_282ff54bbdfa o )  ) ) ( type_e8f2dfaa_ee76_4760_b8c8_f623f6346ef9_Class15 ( obj_bf646af6_c1d6_4f2b_8186_282ff54bbdfa o )  ) ) ( type_e8f2dfaa_ee76_4760_b8c8_f623f6346ef9_Class28 ( obj_bf646af6_c1d6_4f2b_8186_282ff54bbdfa o )  ) ) ( type_e8f2dfaa_ee76_4760_b8c8_f623f6346ef9_Class54 ( obj_bf646af6_c1d6_4f2b_8186_282ff54bbdfa o )  ) )):named c25))
(assert (! (exists ((o Int)) ( type_e8f2dfaa_ee76_4760_b8c8_f623f6346ef9_Class32 ( obj_bf646af6_c1d6_4f2b_8186_282ff54bbdfa o )  ) ):named c26))
(assert (! (exists ((o Int)) (and ( type_e8f2dfaa_ee76_4760_b8c8_f623f6346ef9_Class33 ( obj_bf646af6_c1d6_4f2b_8186_282ff54bbdfa o )  )  ( type_e8f2dfaa_ee76_4760_b8c8_f623f6346ef9_Class15 ( obj_bf646af6_c1d6_4f2b_8186_282ff54bbdfa o )  ) )):named c27))
(assert (! (exists ((o Int)) ( type_e8f2dfaa_ee76_4760_b8c8_f623f6346ef9_Class34 ( obj_bf646af6_c1d6_4f2b_8186_282ff54bbdfa o )  ) ):named c28))
(assert (! (exists ((o Int)) (and (and (and (and ( type_e8f2dfaa_ee76_4760_b8c8_f623f6346ef9_Class35 ( obj_bf646af6_c1d6_4f2b_8186_282ff54bbdfa o )  )  ( type_e8f2dfaa_ee76_4760_b8c8_f623f6346ef9_Class36 ( obj_bf646af6_c1d6_4f2b_8186_282ff54bbdfa o )  ) ) ( type_e8f2dfaa_ee76_4760_b8c8_f623f6346ef9_Class27 ( obj_bf646af6_c1d6_4f2b_8186_282ff54bbdfa o )  ) ) ( type_e8f2dfaa_ee76_4760_b8c8_f623f6346ef9_Class15 ( obj_bf646af6_c1d6_4f2b_8186_282ff54bbdfa o )  ) ) ( type_e8f2dfaa_ee76_4760_b8c8_f623f6346ef9_Class28 ( obj_bf646af6_c1d6_4f2b_8186_282ff54bbdfa o )  ) )):named c29))
(assert (! (exists ((o Int)) (and (and (and ( type_e8f2dfaa_ee76_4760_b8c8_f623f6346ef9_Class36 ( obj_bf646af6_c1d6_4f2b_8186_282ff54bbdfa o )  )  ( type_e8f2dfaa_ee76_4760_b8c8_f623f6346ef9_Class27 ( obj_bf646af6_c1d6_4f2b_8186_282ff54bbdfa o )  ) ) ( type_e8f2dfaa_ee76_4760_b8c8_f623f6346ef9_Class15 ( obj_bf646af6_c1d6_4f2b_8186_282ff54bbdfa o )  ) ) ( type_e8f2dfaa_ee76_4760_b8c8_f623f6346ef9_Class28 ( obj_bf646af6_c1d6_4f2b_8186_282ff54bbdfa o )  ) )):named c30))
(assert (! (exists ((o Int)) (and ( type_e8f2dfaa_ee76_4760_b8c8_f623f6346ef9_Class37 ( obj_bf646af6_c1d6_4f2b_8186_282ff54bbdfa o )  )  ( type_e8f2dfaa_ee76_4760_b8c8_f623f6346ef9_Class15 ( obj_bf646af6_c1d6_4f2b_8186_282ff54bbdfa o )  ) )):named c31))
(assert (! (exists ((o Int)) (and (and (and (and ( type_e8f2dfaa_ee76_4760_b8c8_f623f6346ef9_Class38 ( obj_bf646af6_c1d6_4f2b_8186_282ff54bbdfa o )  )  ( type_e8f2dfaa_ee76_4760_b8c8_f623f6346ef9_Class22 ( obj_bf646af6_c1d6_4f2b_8186_282ff54bbdfa o )  ) ) ( type_e8f2dfaa_ee76_4760_b8c8_f623f6346ef9_Class15 ( obj_bf646af6_c1d6_4f2b_8186_282ff54bbdfa o )  ) ) ( type_e8f2dfaa_ee76_4760_b8c8_f623f6346ef9_Class48 ( obj_bf646af6_c1d6_4f2b_8186_282ff54bbdfa o )  ) ) ( type_e8f2dfaa_ee76_4760_b8c8_f623f6346ef9_Class43 ( obj_bf646af6_c1d6_4f2b_8186_282ff54bbdfa o )  ) )):named c32))
(assert (! (exists ((o Int)) ( type_e8f2dfaa_ee76_4760_b8c8_f623f6346ef9_Class39 ( obj_bf646af6_c1d6_4f2b_8186_282ff54bbdfa o )  ) ):named c33))
(assert (! (exists ((o Int)) (and (and (and (and (and (and ( type_e8f2dfaa_ee76_4760_b8c8_f623f6346ef9_Class4 ( obj_bf646af6_c1d6_4f2b_8186_282ff54bbdfa o )  )  ( type_e8f2dfaa_ee76_4760_b8c8_f623f6346ef9_Class44 ( obj_bf646af6_c1d6_4f2b_8186_282ff54bbdfa o )  ) ) ( type_e8f2dfaa_ee76_4760_b8c8_f623f6346ef9_Class36 ( obj_bf646af6_c1d6_4f2b_8186_282ff54bbdfa o )  ) ) ( type_e8f2dfaa_ee76_4760_b8c8_f623f6346ef9_Class35 ( obj_bf646af6_c1d6_4f2b_8186_282ff54bbdfa o )  ) ) ( type_e8f2dfaa_ee76_4760_b8c8_f623f6346ef9_Class27 ( obj_bf646af6_c1d6_4f2b_8186_282ff54bbdfa o )  ) ) ( type_e8f2dfaa_ee76_4760_b8c8_f623f6346ef9_Class15 ( obj_bf646af6_c1d6_4f2b_8186_282ff54bbdfa o )  ) ) ( type_e8f2dfaa_ee76_4760_b8c8_f623f6346ef9_Class28 ( obj_bf646af6_c1d6_4f2b_8186_282ff54bbdfa o )  ) )):named c34))
(assert (! (exists ((o Int)) ( type_e8f2dfaa_ee76_4760_b8c8_f623f6346ef9_Class40 ( obj_bf646af6_c1d6_4f2b_8186_282ff54bbdfa o )  ) ):named c35))
(assert (! (exists ((o Int)) ( type_e8f2dfaa_ee76_4760_b8c8_f623f6346ef9_Class41 ( obj_bf646af6_c1d6_4f2b_8186_282ff54bbdfa o )  ) ):named c36))
(assert (! (exists ((o Int)) ( type_e8f2dfaa_ee76_4760_b8c8_f623f6346ef9_Class42 ( obj_bf646af6_c1d6_4f2b_8186_282ff54bbdfa o )  ) ):named c37))
(assert (! (exists ((o Int)) (and ( type_e8f2dfaa_ee76_4760_b8c8_f623f6346ef9_Class43 ( obj_bf646af6_c1d6_4f2b_8186_282ff54bbdfa o )  )  ( type_e8f2dfaa_ee76_4760_b8c8_f623f6346ef9_Class15 ( obj_bf646af6_c1d6_4f2b_8186_282ff54bbdfa o )  ) )):named c38))
(assert (! (exists ((o Int)) (and (and (and (and (and ( type_e8f2dfaa_ee76_4760_b8c8_f623f6346ef9_Class44 ( obj_bf646af6_c1d6_4f2b_8186_282ff54bbdfa o )  )  ( type_e8f2dfaa_ee76_4760_b8c8_f623f6346ef9_Class36 ( obj_bf646af6_c1d6_4f2b_8186_282ff54bbdfa o )  ) ) ( type_e8f2dfaa_ee76_4760_b8c8_f623f6346ef9_Class35 ( obj_bf646af6_c1d6_4f2b_8186_282ff54bbdfa o )  ) ) ( type_e8f2dfaa_ee76_4760_b8c8_f623f6346ef9_Class27 ( obj_bf646af6_c1d6_4f2b_8186_282ff54bbdfa o )  ) ) ( type_e8f2dfaa_ee76_4760_b8c8_f623f6346ef9_Class15 ( obj_bf646af6_c1d6_4f2b_8186_282ff54bbdfa o )  ) ) ( type_e8f2dfaa_ee76_4760_b8c8_f623f6346ef9_Class28 ( obj_bf646af6_c1d6_4f2b_8186_282ff54bbdfa o )  ) )):named c39))
(assert (! (exists ((o Int)) (and (and (and (and (and (and ( type_e8f2dfaa_ee76_4760_b8c8_f623f6346ef9_Class45 ( obj_bf646af6_c1d6_4f2b_8186_282ff54bbdfa o )  )  ( type_e8f2dfaa_ee76_4760_b8c8_f623f6346ef9_Class36 ( obj_bf646af6_c1d6_4f2b_8186_282ff54bbdfa o )  ) ) ( type_e8f2dfaa_ee76_4760_b8c8_f623f6346ef9_Class35 ( obj_bf646af6_c1d6_4f2b_8186_282ff54bbdfa o )  ) ) ( type_e8f2dfaa_ee76_4760_b8c8_f623f6346ef9_Class27 ( obj_bf646af6_c1d6_4f2b_8186_282ff54bbdfa o )  ) ) ( type_e8f2dfaa_ee76_4760_b8c8_f623f6346ef9_Class9 ( obj_bf646af6_c1d6_4f2b_8186_282ff54bbdfa o )  ) ) ( type_e8f2dfaa_ee76_4760_b8c8_f623f6346ef9_Class15 ( obj_bf646af6_c1d6_4f2b_8186_282ff54bbdfa o )  ) ) ( type_e8f2dfaa_ee76_4760_b8c8_f623f6346ef9_Class28 ( obj_bf646af6_c1d6_4f2b_8186_282ff54bbdfa o )  ) )):named c40))
(assert (! (exists ((o Int)) (and (and ( type_e8f2dfaa_ee76_4760_b8c8_f623f6346ef9_Class46 ( obj_bf646af6_c1d6_4f2b_8186_282ff54bbdfa o )  )  ( type_e8f2dfaa_ee76_4760_b8c8_f623f6346ef9_Class15 ( obj_bf646af6_c1d6_4f2b_8186_282ff54bbdfa o )  ) ) ( type_e8f2dfaa_ee76_4760_b8c8_f623f6346ef9_Class5 ( obj_bf646af6_c1d6_4f2b_8186_282ff54bbdfa o )  ) )):named c41))
(assert (! (exists ((o Int)) ( type_e8f2dfaa_ee76_4760_b8c8_f623f6346ef9_Class47 ( obj_bf646af6_c1d6_4f2b_8186_282ff54bbdfa o )  ) ):named c42))
(assert (! (exists ((o Int)) (and ( type_e8f2dfaa_ee76_4760_b8c8_f623f6346ef9_Class48 ( obj_bf646af6_c1d6_4f2b_8186_282ff54bbdfa o )  )  ( type_e8f2dfaa_ee76_4760_b8c8_f623f6346ef9_Class15 ( obj_bf646af6_c1d6_4f2b_8186_282ff54bbdfa o )  ) )):named c43))
(assert (! (exists ((o Int)) ( type_e8f2dfaa_ee76_4760_b8c8_f623f6346ef9_Class49 ( obj_bf646af6_c1d6_4f2b_8186_282ff54bbdfa o )  ) ):named c44))
(assert (! (exists ((o Int)) (and ( type_e8f2dfaa_ee76_4760_b8c8_f623f6346ef9_Class5 ( obj_bf646af6_c1d6_4f2b_8186_282ff54bbdfa o )  )  ( type_e8f2dfaa_ee76_4760_b8c8_f623f6346ef9_Class15 ( obj_bf646af6_c1d6_4f2b_8186_282ff54bbdfa o )  ) )):named c45))
(assert (! (exists ((o Int)) ( type_e8f2dfaa_ee76_4760_b8c8_f623f6346ef9_Class50 ( obj_bf646af6_c1d6_4f2b_8186_282ff54bbdfa o )  ) ):named c46))
(assert (! (exists ((o Int)) ( type_e8f2dfaa_ee76_4760_b8c8_f623f6346ef9_Class51 ( obj_bf646af6_c1d6_4f2b_8186_282ff54bbdfa o )  ) ):named c47))
(assert (! (exists ((o Int)) ( type_e8f2dfaa_ee76_4760_b8c8_f623f6346ef9_Class52 ( obj_bf646af6_c1d6_4f2b_8186_282ff54bbdfa o )  ) ):named c48))
(assert (! (exists ((o Int)) ( type_e8f2dfaa_ee76_4760_b8c8_f623f6346ef9_Class53 ( obj_bf646af6_c1d6_4f2b_8186_282ff54bbdfa o )  ) ):named c49))
(assert (! (exists ((o Int)) (and (and (and (and (and ( type_e8f2dfaa_ee76_4760_b8c8_f623f6346ef9_Class54 ( obj_bf646af6_c1d6_4f2b_8186_282ff54bbdfa o )  )  ( type_e8f2dfaa_ee76_4760_b8c8_f623f6346ef9_Class36 ( obj_bf646af6_c1d6_4f2b_8186_282ff54bbdfa o )  ) ) ( type_e8f2dfaa_ee76_4760_b8c8_f623f6346ef9_Class35 ( obj_bf646af6_c1d6_4f2b_8186_282ff54bbdfa o )  ) ) ( type_e8f2dfaa_ee76_4760_b8c8_f623f6346ef9_Class27 ( obj_bf646af6_c1d6_4f2b_8186_282ff54bbdfa o )  ) ) ( type_e8f2dfaa_ee76_4760_b8c8_f623f6346ef9_Class15 ( obj_bf646af6_c1d6_4f2b_8186_282ff54bbdfa o )  ) ) ( type_e8f2dfaa_ee76_4760_b8c8_f623f6346ef9_Class28 ( obj_bf646af6_c1d6_4f2b_8186_282ff54bbdfa o )  ) )):named c50))
(assert (! (exists ((o Int)) ( type_e8f2dfaa_ee76_4760_b8c8_f623f6346ef9_Class55 ( obj_bf646af6_c1d6_4f2b_8186_282ff54bbdfa o )  ) ):named c51))
(assert (! (exists ((o Int)) ( type_e8f2dfaa_ee76_4760_b8c8_f623f6346ef9_Class56 ( obj_bf646af6_c1d6_4f2b_8186_282ff54bbdfa o )  ) ):named c52))
(assert (! (exists ((o Int)) (and (and (and (and ( type_e8f2dfaa_ee76_4760_b8c8_f623f6346ef9_Class6 ( obj_bf646af6_c1d6_4f2b_8186_282ff54bbdfa o )  )  ( type_e8f2dfaa_ee76_4760_b8c8_f623f6346ef9_Class22 ( obj_bf646af6_c1d6_4f2b_8186_282ff54bbdfa o )  ) ) ( type_e8f2dfaa_ee76_4760_b8c8_f623f6346ef9_Class15 ( obj_bf646af6_c1d6_4f2b_8186_282ff54bbdfa o )  ) ) ( type_e8f2dfaa_ee76_4760_b8c8_f623f6346ef9_Class48 ( obj_bf646af6_c1d6_4f2b_8186_282ff54bbdfa o )  ) ) ( type_e8f2dfaa_ee76_4760_b8c8_f623f6346ef9_Class43 ( obj_bf646af6_c1d6_4f2b_8186_282ff54bbdfa o )  ) )):named c53))
(assert (! (exists ((o Int)) ( type_e8f2dfaa_ee76_4760_b8c8_f623f6346ef9_Class7 ( obj_bf646af6_c1d6_4f2b_8186_282ff54bbdfa o )  ) ):named c54))
(assert (! (exists ((o Int)) ( type_e8f2dfaa_ee76_4760_b8c8_f623f6346ef9_Class8 ( obj_bf646af6_c1d6_4f2b_8186_282ff54bbdfa o )  ) ):named c55))
(assert (! (exists ((o Int)) (and (and (and (and (and ( type_e8f2dfaa_ee76_4760_b8c8_f623f6346ef9_Class9 ( obj_bf646af6_c1d6_4f2b_8186_282ff54bbdfa o )  )  ( type_e8f2dfaa_ee76_4760_b8c8_f623f6346ef9_Class36 ( obj_bf646af6_c1d6_4f2b_8186_282ff54bbdfa o )  ) ) ( type_e8f2dfaa_ee76_4760_b8c8_f623f6346ef9_Class35 ( obj_bf646af6_c1d6_4f2b_8186_282ff54bbdfa o )  ) ) ( type_e8f2dfaa_ee76_4760_b8c8_f623f6346ef9_Class27 ( obj_bf646af6_c1d6_4f2b_8186_282ff54bbdfa o )  ) ) ( type_e8f2dfaa_ee76_4760_b8c8_f623f6346ef9_Class15 ( obj_bf646af6_c1d6_4f2b_8186_282ff54bbdfa o )  ) ) ( type_e8f2dfaa_ee76_4760_b8c8_f623f6346ef9_Class28 ( obj_bf646af6_c1d6_4f2b_8186_282ff54bbdfa o )  ) )):named c56))

 ;end of formula 